53-89-95-110-23-59-15-60-0-75-28-29-58-14-80-93-77-44-91-31-119-27-73-86-13-85-21-84-65-30-116-18-24-107-42-78-51-32-99-57-90-67-64-68-106-17-74-43-49-45-19-112-117-12-48-16-97-41-40-55-71-104-39-6-37-102-118-2-81-8-22-50-10-114-1-92-20-108-87-96-11-94-76-63-52-26-79-4-62-38-82-56-72-66-36-61-98-103-9-34-83-35-5-54-88-109-111-33-3-25-70-46-47-101-100-113-105-115-69-7 7151
